(set-info :notes | Converted from SMT-LIBv1 to v2 by MathSAT 5.5.4. |)
(set-option :produce-models true)

(declare-fun x_16 () Real)
(declare-fun x_41 () Bool)
(declare-fun x_18 () Bool)
(declare-fun x_6 () Real)
(declare-fun x_20 () Bool)
(declare-fun x_8 () Bool)
(declare-fun x_22 () Real)
(declare-fun x_24 () Real)
(declare-fun x_2 () Bool)
(declare-fun x_43 () Real)
(declare-fun x_9 () Bool)
(declare-fun x_26 () Bool)
(declare-fun x_4 () Bool)
(declare-fun x_45 () Bool)
(declare-fun x_11 () Real)
(declare-fun x_28 () Bool)
(declare-fun x_36 () Bool)
(declare-fun x_34 () Bool)
(declare-fun x_0 () Real)
(declare-fun x_47 () Real)
(declare-fun x_13 () Bool)
(declare-fun x_30 () Real)
(declare-fun x_38 () Real)
(declare-fun x_15 () Real)
(declare-fun x_40 () Real)
(declare-fun x_17 () Bool)
(declare-fun x_32 () Real)
(declare-fun x_42 () Bool)
(declare-fun x_19 () Real)
(declare-fun x_7 () Real)
(declare-fun x_21 () Bool)
(declare-fun x_23 () Real)
(declare-fun x_1 () Bool)
(declare-fun cost () Real)
(declare-fun x_25 () Bool)
(declare-fun x_3 () Bool)
(declare-fun x_44 () Bool)
(declare-fun x_10 () Real)
(declare-fun x_27 () Real)
(declare-fun x_5 () Real)
(declare-fun x_33 () Bool)
(declare-fun x_46 () Real)
(declare-fun x_12 () Bool)
(declare-fun x_29 () Bool)
(declare-fun x_37 () Bool)
(declare-fun x_35 () Real)
(declare-fun x_48 () Real)
(declare-fun x_14 () Real)
(declare-fun x_31 () Real)
(declare-fun x_39 () Real)
(assert (let ((.def_870 (<= (to_real 0) x_0)))
(let ((.def_869 (<= (to_real 0) x_5)))
(let ((.def_871 (and .def_869 .def_870)))
(let ((.def_868 (<= (to_real 0) x_6)))
(let ((.def_872 (and .def_868 .def_871)))
(let ((.def_867 (<= (to_real 0) x_7)))
(let ((.def_873 (and .def_867 .def_872)))
(let ((.def_866 (<= x_7 (to_real 2))))
(let ((.def_874 (and .def_866 .def_873)))
(let ((.def_864 (<= x_10 (to_real 0))))
(let ((.def_865 (not .def_864)))
(let ((.def_875 (and .def_865 .def_874)))
(let ((.def_863 (<= (to_real 0) x_11)))
(let ((.def_876 (and .def_863 .def_875)))
(let ((.def_862 (<= x_11 (to_real 2))))
(let ((.def_877 (and .def_862 .def_876)))
(let ((.def_861 (<= (to_real 0) x_14)))
(let ((.def_878 (and .def_861 .def_877)))
(let ((.def_860 (<= (to_real 0) x_15)))
(let ((.def_879 (and .def_860 .def_878)))
(let ((.def_859 (<= (to_real 0) x_16)))
(let ((.def_880 (and .def_859 .def_879)))
(let ((.def_858 (<= (to_real 0) x_19)))
(let ((.def_881 (and .def_858 .def_880)))
(let ((.def_857 (<= x_19 (to_real 2))))
(let ((.def_882 (and .def_857 .def_881)))
(let ((.def_856 (<= (to_real 0) x_22)))
(let ((.def_883 (and .def_856 .def_882)))
(let ((.def_855 (<= (to_real 0) x_23)))
(let ((.def_884 (and .def_855 .def_883)))
(let ((.def_854 (<= (to_real 0) x_24)))
(let ((.def_885 (and .def_854 .def_884)))
(let ((.def_853 (<= (to_real 0) x_27)))
(let ((.def_886 (and .def_853 .def_885)))
(let ((.def_852 (<= x_27 (to_real 2))))
(let ((.def_887 (and .def_852 .def_886)))
(let ((.def_851 (<= (to_real 0) x_30)))
(let ((.def_888 (and .def_851 .def_887)))
(let ((.def_850 (<= (to_real 0) x_31)))
(let ((.def_889 (and .def_850 .def_888)))
(let ((.def_849 (<= (to_real 0) x_32)))
(let ((.def_890 (and .def_849 .def_889)))
(let ((.def_848 (<= (to_real 0) x_35)))
(let ((.def_891 (and .def_848 .def_890)))
(let ((.def_847 (<= x_35 (to_real 2))))
(let ((.def_892 (and .def_847 .def_891)))
(let ((.def_846 (<= (to_real 0) x_38)))
(let ((.def_893 (and .def_846 .def_892)))
(let ((.def_845 (<= (to_real 0) x_39)))
(let ((.def_894 (and .def_845 .def_893)))
(let ((.def_844 (<= (to_real 0) x_40)))
(let ((.def_895 (and .def_844 .def_894)))
(let ((.def_843 (<= (to_real 0) x_43)))
(let ((.def_896 (and .def_843 .def_895)))
(let ((.def_842 (<= x_43 (to_real 2))))
(let ((.def_897 (and .def_842 .def_896)))
(let ((.def_841 (<= (to_real 0) x_46)))
(let ((.def_898 (and .def_841 .def_897)))
(let ((.def_840 (<= (to_real 0) x_47)))
(let ((.def_899 (and .def_840 .def_898)))
(let ((.def_839 (<= (to_real 0) x_48)))
(let ((.def_900 (and .def_839 .def_899)))
(let ((.def_838 (= x_0 (to_real 0))))
(let ((.def_901 (and .def_838 .def_900)))
(let ((.def_238 (not x_1)))
(let ((.def_17 (not x_2)))
(let ((.def_259 (and .def_17 .def_238)))
(let ((.def_902 (and .def_259 .def_901)))
(let ((.def_168 (not x_3)))
(let ((.def_22 (not x_4)))
(let ((.def_194 (and .def_22 .def_168)))
(let ((.def_903 (and .def_194 .def_902)))
(let ((.def_836 (<= x_5 x_0)))
(let ((.def_837 (not .def_836)))
(let ((.def_904 (and .def_837 .def_903)))
(let ((.def_834 (<= x_6 x_0)))
(let ((.def_835 (not .def_834)))
(let ((.def_905 (and .def_835 .def_904)))
(let ((.def_196 (= x_7 (to_real 0))))
(let ((.def_906 (and .def_196 .def_905)))
(let ((.def_115 (<= x_38 x_39)))
(let ((.def_822 (not .def_115)))
(let ((.def_823 (ite .def_822 x_39 x_38)))
(let ((.def_825 (<= .def_823 x_40)))
(let ((.def_826 (not .def_825)))
(let ((.def_824 (= x_48 .def_823)))
(let ((.def_827 (and .def_824 .def_826)))
(let ((.def_761 (= x_33 x_41)))
(let ((.def_760 (= x_34 x_42)))
(let ((.def_762 (and .def_760 .def_761)))
(let ((.def_828 (and .def_762 .def_827)))
(let ((.def_742 (= x_36 x_44)))
(let ((.def_741 (= x_37 x_45)))
(let ((.def_743 (and .def_741 .def_742)))
(let ((.def_829 (and .def_743 .def_828)))
(let ((.def_764 (= x_38 x_46)))
(let ((.def_830 (and .def_764 .def_829)))
(let ((.def_818 (= x_39 x_47)))
(let ((.def_831 (and .def_818 .def_830)))
(let ((.def_719 (= x_35 x_43)))
(let ((.def_832 (and .def_719 .def_831)))
(let ((.def_767 (= x_38 x_40)))
(let ((.def_635 (not x_33)))
(let ((.def_103 (not x_34)))
(let ((.def_636 (and .def_103 .def_635)))
(let ((.def_797 (and .def_636 .def_767)))
(let ((.def_574 (= x_35 (to_real 0))))
(let ((.def_806 (and .def_574 .def_797)))
(let ((.def_807 (and x_41 .def_806)))
(let ((.def_124 (not x_42)))
(let ((.def_808 (and .def_124 .def_807)))
(let ((.def_773 (<= x_46 x_40)))
(let ((.def_774 (not .def_773)))
(let ((.def_809 (and .def_774 .def_808)))
(let ((.def_788 (* (to_real (- 1)) x_46)))
(let ((.def_803 (+ .def_788 x_40)))
(let ((.def_804 (+ x_10 .def_803)))
(let ((.def_805 (<= (to_real 0) .def_804)))
(let ((.def_810 (and .def_805 .def_809)))
(let ((.def_811 (and .def_719 .def_810)))
(let ((.def_737 (not .def_574)))
(let ((.def_798 (and .def_737 .def_797)))
(let ((.def_799 (and .def_774 .def_798)))
(let ((.def_800 (and .def_719 .def_799)))
(let ((.def_801 (and .def_762 .def_800)))
(let ((.def_812 (or .def_801 .def_811)))
(let ((.def_105 (and .def_103 x_33)))
(let ((.def_792 (and .def_105 .def_767)))
(let ((.def_769 (not x_41)))
(let ((.def_793 (and .def_769 .def_792)))
(let ((.def_794 (and x_42 .def_793)))
(let ((.def_139 (= x_43 (to_real 1))))
(let ((.def_795 (and .def_139 .def_794)))
(let ((.def_728 (* (to_real (- 1)) x_40)))
(let ((.def_790 (+ x_46 .def_728)))
(let ((.def_791 (<= (to_real 4) .def_790)))
(let ((.def_796 (and .def_791 .def_795)))
(let ((.def_813 (or .def_796 .def_812)))
(let ((.def_777 (and x_34 .def_635)))
(let ((.def_778 (and .def_767 .def_777)))
(let ((.def_118 (= x_35 (to_real 1))))
(let ((.def_783 (and .def_118 .def_778)))
(let ((.def_784 (and x_41 .def_783)))
(let ((.def_785 (and x_42 .def_784)))
(let ((.def_786 (and .def_774 .def_785)))
(let ((.def_787 (and .def_719 .def_786)))
(let ((.def_814 (or .def_787 .def_813)))
(let ((.def_776 (not .def_118)))
(let ((.def_779 (and .def_776 .def_778)))
(let ((.def_770 (and .def_124 .def_769)))
(let ((.def_780 (and .def_770 .def_779)))
(let ((.def_781 (and .def_774 .def_780)))
(let ((.def_782 (and .def_719 .def_781)))
(let ((.def_815 (or .def_782 .def_814)))
(let ((.def_766 (and x_34 x_33)))
(let ((.def_768 (and .def_766 .def_767)))
(let ((.def_771 (and .def_768 .def_770)))
(let ((.def_708 (= x_43 (to_real 0))))
(let ((.def_772 (and .def_708 .def_771)))
(let ((.def_775 (and .def_772 .def_774)))
(let ((.def_816 (or .def_775 .def_815)))
(let ((.def_817 (and .def_743 .def_816)))
(let ((.def_819 (and .def_817 .def_818)))
(let ((.def_703 (= x_39 x_40)))
(let ((.def_571 (not x_36)))
(let ((.def_108 (not x_37)))
(let ((.def_572 (and .def_108 .def_571)))
(let ((.def_736 (and .def_572 .def_703)))
(let ((.def_749 (and .def_574 .def_736)))
(let ((.def_750 (and x_44 .def_749)))
(let ((.def_129 (not x_45)))
(let ((.def_751 (and .def_129 .def_750)))
(let ((.def_710 (<= x_47 x_40)))
(let ((.def_711 (not .def_710)))
(let ((.def_752 (and .def_711 .def_751)))
(let ((.def_726 (* (to_real (- 1)) x_47)))
(let ((.def_746 (+ .def_726 x_40)))
(let ((.def_747 (+ x_10 .def_746)))
(let ((.def_748 (<= (to_real 0) .def_747)))
(let ((.def_753 (and .def_748 .def_752)))
(let ((.def_754 (and .def_719 .def_753)))
(let ((.def_738 (and .def_736 .def_737)))
(let ((.def_739 (and .def_711 .def_738)))
(let ((.def_740 (and .def_719 .def_739)))
(let ((.def_744 (and .def_740 .def_743)))
(let ((.def_755 (or .def_744 .def_754)))
(let ((.def_110 (and .def_108 x_36)))
(let ((.def_731 (and .def_110 .def_703)))
(let ((.def_705 (not x_44)))
(let ((.def_732 (and .def_705 .def_731)))
(let ((.def_733 (and x_45 .def_732)))
(let ((.def_134 (= x_43 (to_real 2))))
(let ((.def_734 (and .def_134 .def_733)))
(let ((.def_729 (+ x_47 .def_728)))
(let ((.def_730 (<= (to_real 4) .def_729)))
(let ((.def_735 (and .def_730 .def_734)))
(let ((.def_756 (or .def_735 .def_755)))
(let ((.def_714 (and x_37 .def_571)))
(let ((.def_715 (and .def_703 .def_714)))
(let ((.def_113 (= x_35 (to_real 2))))
(let ((.def_721 (and .def_113 .def_715)))
(let ((.def_722 (and x_44 .def_721)))
(let ((.def_723 (and x_45 .def_722)))
(let ((.def_724 (and .def_711 .def_723)))
(let ((.def_725 (and .def_719 .def_724)))
(let ((.def_757 (or .def_725 .def_756)))
(let ((.def_713 (not .def_113)))
(let ((.def_716 (and .def_713 .def_715)))
(let ((.def_706 (and .def_129 .def_705)))
(let ((.def_717 (and .def_706 .def_716)))
(let ((.def_718 (and .def_711 .def_717)))
(let ((.def_720 (and .def_718 .def_719)))
(let ((.def_758 (or .def_720 .def_757)))
(let ((.def_702 (and x_37 x_36)))
(let ((.def_704 (and .def_702 .def_703)))
(let ((.def_707 (and .def_704 .def_706)))
(let ((.def_709 (and .def_707 .def_708)))
(let ((.def_712 (and .def_709 .def_711)))
(let ((.def_759 (or .def_712 .def_758)))
(let ((.def_763 (and .def_759 .def_762)))
(let ((.def_765 (and .def_763 .def_764)))
(let ((.def_820 (or .def_765 .def_819)))
(let ((.def_701 (= x_40 x_48)))
(let ((.def_821 (and .def_701 .def_820)))
(let ((.def_833 (or .def_821 .def_832)))
(let ((.def_907 (and .def_833 .def_906)))
(let ((.def_94 (<= x_30 x_31)))
(let ((.def_688 (not .def_94)))
(let ((.def_689 (ite .def_688 x_31 x_30)))
(let ((.def_691 (<= .def_689 x_32)))
(let ((.def_692 (not .def_691)))
(let ((.def_690 (= x_40 .def_689)))
(let ((.def_693 (and .def_690 .def_692)))
(let ((.def_627 (= x_25 x_33)))
(let ((.def_626 (= x_26 x_34)))
(let ((.def_628 (and .def_626 .def_627)))
(let ((.def_694 (and .def_628 .def_693)))
(let ((.def_608 (= x_28 x_36)))
(let ((.def_607 (= x_29 x_37)))
(let ((.def_609 (and .def_607 .def_608)))
(let ((.def_695 (and .def_609 .def_694)))
(let ((.def_630 (= x_30 x_38)))
(let ((.def_696 (and .def_630 .def_695)))
(let ((.def_684 (= x_31 x_39)))
(let ((.def_697 (and .def_684 .def_696)))
(let ((.def_585 (= x_27 x_35)))
(let ((.def_698 (and .def_585 .def_697)))
(let ((.def_633 (= x_30 x_32)))
(let ((.def_501 (not x_25)))
(let ((.def_82 (not x_26)))
(let ((.def_502 (and .def_82 .def_501)))
(let ((.def_663 (and .def_502 .def_633)))
(let ((.def_440 (= x_27 (to_real 0))))
(let ((.def_672 (and .def_440 .def_663)))
(let ((.def_673 (and x_33 .def_672)))
(let ((.def_674 (and .def_103 .def_673)))
(let ((.def_639 (<= x_38 x_32)))
(let ((.def_640 (not .def_639)))
(let ((.def_675 (and .def_640 .def_674)))
(let ((.def_654 (* (to_real (- 1)) x_38)))
(let ((.def_669 (+ .def_654 x_32)))
(let ((.def_670 (+ x_10 .def_669)))
(let ((.def_671 (<= (to_real 0) .def_670)))
(let ((.def_676 (and .def_671 .def_675)))
(let ((.def_677 (and .def_585 .def_676)))
(let ((.def_603 (not .def_440)))
(let ((.def_664 (and .def_603 .def_663)))
(let ((.def_665 (and .def_640 .def_664)))
(let ((.def_666 (and .def_585 .def_665)))
(let ((.def_667 (and .def_628 .def_666)))
(let ((.def_678 (or .def_667 .def_677)))
(let ((.def_84 (and .def_82 x_25)))
(let ((.def_658 (and .def_84 .def_633)))
(let ((.def_659 (and .def_635 .def_658)))
(let ((.def_660 (and x_34 .def_659)))
(let ((.def_661 (and .def_118 .def_660)))
(let ((.def_594 (* (to_real (- 1)) x_32)))
(let ((.def_656 (+ x_38 .def_594)))
(let ((.def_657 (<= (to_real 4) .def_656)))
(let ((.def_662 (and .def_657 .def_661)))
(let ((.def_679 (or .def_662 .def_678)))
(let ((.def_643 (and x_26 .def_501)))
(let ((.def_644 (and .def_633 .def_643)))
(let ((.def_97 (= x_27 (to_real 1))))
(let ((.def_649 (and .def_97 .def_644)))
(let ((.def_650 (and x_33 .def_649)))
(let ((.def_651 (and x_34 .def_650)))
(let ((.def_652 (and .def_640 .def_651)))
(let ((.def_653 (and .def_585 .def_652)))
(let ((.def_680 (or .def_653 .def_679)))
(let ((.def_642 (not .def_97)))
(let ((.def_645 (and .def_642 .def_644)))
(let ((.def_646 (and .def_636 .def_645)))
(let ((.def_647 (and .def_640 .def_646)))
(let ((.def_648 (and .def_585 .def_647)))
(let ((.def_681 (or .def_648 .def_680)))
(let ((.def_632 (and x_26 x_25)))
(let ((.def_634 (and .def_632 .def_633)))
(let ((.def_637 (and .def_634 .def_636)))
(let ((.def_638 (and .def_574 .def_637)))
(let ((.def_641 (and .def_638 .def_640)))
(let ((.def_682 (or .def_641 .def_681)))
(let ((.def_683 (and .def_609 .def_682)))
(let ((.def_685 (and .def_683 .def_684)))
(let ((.def_569 (= x_31 x_32)))
(let ((.def_437 (not x_28)))
(let ((.def_87 (not x_29)))
(let ((.def_438 (and .def_87 .def_437)))
(let ((.def_602 (and .def_438 .def_569)))
(let ((.def_615 (and .def_440 .def_602)))
(let ((.def_616 (and x_36 .def_615)))
(let ((.def_617 (and .def_108 .def_616)))
(let ((.def_576 (<= x_39 x_32)))
(let ((.def_577 (not .def_576)))
(let ((.def_618 (and .def_577 .def_617)))
(let ((.def_592 (* (to_real (- 1)) x_39)))
(let ((.def_612 (+ .def_592 x_32)))
(let ((.def_613 (+ x_10 .def_612)))
(let ((.def_614 (<= (to_real 0) .def_613)))
(let ((.def_619 (and .def_614 .def_618)))
(let ((.def_620 (and .def_585 .def_619)))
(let ((.def_604 (and .def_602 .def_603)))
(let ((.def_605 (and .def_577 .def_604)))
(let ((.def_606 (and .def_585 .def_605)))
(let ((.def_610 (and .def_606 .def_609)))
(let ((.def_621 (or .def_610 .def_620)))
(let ((.def_89 (and .def_87 x_28)))
(let ((.def_597 (and .def_89 .def_569)))
(let ((.def_598 (and .def_571 .def_597)))
(let ((.def_599 (and x_37 .def_598)))
(let ((.def_600 (and .def_113 .def_599)))
(let ((.def_595 (+ x_39 .def_594)))
(let ((.def_596 (<= (to_real 4) .def_595)))
(let ((.def_601 (and .def_596 .def_600)))
(let ((.def_622 (or .def_601 .def_621)))
(let ((.def_580 (and x_29 .def_437)))
(let ((.def_581 (and .def_569 .def_580)))
(let ((.def_92 (= x_27 (to_real 2))))
(let ((.def_587 (and .def_92 .def_581)))
(let ((.def_588 (and x_36 .def_587)))
(let ((.def_589 (and x_37 .def_588)))
(let ((.def_590 (and .def_577 .def_589)))
(let ((.def_591 (and .def_585 .def_590)))
(let ((.def_623 (or .def_591 .def_622)))
(let ((.def_579 (not .def_92)))
(let ((.def_582 (and .def_579 .def_581)))
(let ((.def_583 (and .def_572 .def_582)))
(let ((.def_584 (and .def_577 .def_583)))
(let ((.def_586 (and .def_584 .def_585)))
(let ((.def_624 (or .def_586 .def_623)))
(let ((.def_568 (and x_29 x_28)))
(let ((.def_570 (and .def_568 .def_569)))
(let ((.def_573 (and .def_570 .def_572)))
(let ((.def_575 (and .def_573 .def_574)))
(let ((.def_578 (and .def_575 .def_577)))
(let ((.def_625 (or .def_578 .def_624)))
(let ((.def_629 (and .def_625 .def_628)))
(let ((.def_631 (and .def_629 .def_630)))
(let ((.def_686 (or .def_631 .def_685)))
(let ((.def_567 (= x_32 x_40)))
(let ((.def_687 (and .def_567 .def_686)))
(let ((.def_699 (or .def_687 .def_698)))
(let ((.def_908 (and .def_699 .def_907)))
(let ((.def_73 (<= x_22 x_23)))
(let ((.def_554 (not .def_73)))
(let ((.def_555 (ite .def_554 x_23 x_22)))
(let ((.def_557 (<= .def_555 x_24)))
(let ((.def_558 (not .def_557)))
(let ((.def_556 (= x_32 .def_555)))
(let ((.def_559 (and .def_556 .def_558)))
(let ((.def_493 (= x_17 x_25)))
(let ((.def_492 (= x_18 x_26)))
(let ((.def_494 (and .def_492 .def_493)))
(let ((.def_560 (and .def_494 .def_559)))
(let ((.def_474 (= x_20 x_28)))
(let ((.def_473 (= x_21 x_29)))
(let ((.def_475 (and .def_473 .def_474)))
(let ((.def_561 (and .def_475 .def_560)))
(let ((.def_496 (= x_22 x_30)))
(let ((.def_562 (and .def_496 .def_561)))
(let ((.def_550 (= x_23 x_31)))
(let ((.def_563 (and .def_550 .def_562)))
(let ((.def_451 (= x_19 x_27)))
(let ((.def_564 (and .def_451 .def_563)))
(let ((.def_499 (= x_22 x_24)))
(let ((.def_367 (not x_17)))
(let ((.def_61 (not x_18)))
(let ((.def_368 (and .def_61 .def_367)))
(let ((.def_529 (and .def_368 .def_499)))
(let ((.def_306 (= x_19 (to_real 0))))
(let ((.def_538 (and .def_306 .def_529)))
(let ((.def_539 (and x_25 .def_538)))
(let ((.def_540 (and .def_82 .def_539)))
(let ((.def_505 (<= x_30 x_24)))
(let ((.def_506 (not .def_505)))
(let ((.def_541 (and .def_506 .def_540)))
(let ((.def_520 (* (to_real (- 1)) x_30)))
(let ((.def_535 (+ .def_520 x_24)))
(let ((.def_536 (+ x_10 .def_535)))
(let ((.def_537 (<= (to_real 0) .def_536)))
(let ((.def_542 (and .def_537 .def_541)))
(let ((.def_543 (and .def_451 .def_542)))
(let ((.def_469 (not .def_306)))
(let ((.def_530 (and .def_469 .def_529)))
(let ((.def_531 (and .def_506 .def_530)))
(let ((.def_532 (and .def_451 .def_531)))
(let ((.def_533 (and .def_494 .def_532)))
(let ((.def_544 (or .def_533 .def_543)))
(let ((.def_63 (and .def_61 x_17)))
(let ((.def_524 (and .def_63 .def_499)))
(let ((.def_525 (and .def_501 .def_524)))
(let ((.def_526 (and x_26 .def_525)))
(let ((.def_527 (and .def_97 .def_526)))
(let ((.def_460 (* (to_real (- 1)) x_24)))
(let ((.def_522 (+ x_30 .def_460)))
(let ((.def_523 (<= (to_real 4) .def_522)))
(let ((.def_528 (and .def_523 .def_527)))
(let ((.def_545 (or .def_528 .def_544)))
(let ((.def_509 (and x_18 .def_367)))
(let ((.def_510 (and .def_499 .def_509)))
(let ((.def_76 (= x_19 (to_real 1))))
(let ((.def_515 (and .def_76 .def_510)))
(let ((.def_516 (and x_25 .def_515)))
(let ((.def_517 (and x_26 .def_516)))
(let ((.def_518 (and .def_506 .def_517)))
(let ((.def_519 (and .def_451 .def_518)))
(let ((.def_546 (or .def_519 .def_545)))
(let ((.def_508 (not .def_76)))
(let ((.def_511 (and .def_508 .def_510)))
(let ((.def_512 (and .def_502 .def_511)))
(let ((.def_513 (and .def_506 .def_512)))
(let ((.def_514 (and .def_451 .def_513)))
(let ((.def_547 (or .def_514 .def_546)))
(let ((.def_498 (and x_18 x_17)))
(let ((.def_500 (and .def_498 .def_499)))
(let ((.def_503 (and .def_500 .def_502)))
(let ((.def_504 (and .def_440 .def_503)))
(let ((.def_507 (and .def_504 .def_506)))
(let ((.def_548 (or .def_507 .def_547)))
(let ((.def_549 (and .def_475 .def_548)))
(let ((.def_551 (and .def_549 .def_550)))
(let ((.def_435 (= x_23 x_24)))
(let ((.def_303 (not x_20)))
(let ((.def_66 (not x_21)))
(let ((.def_304 (and .def_66 .def_303)))
(let ((.def_468 (and .def_304 .def_435)))
(let ((.def_481 (and .def_306 .def_468)))
(let ((.def_482 (and x_28 .def_481)))
(let ((.def_483 (and .def_87 .def_482)))
(let ((.def_442 (<= x_31 x_24)))
(let ((.def_443 (not .def_442)))
(let ((.def_484 (and .def_443 .def_483)))
(let ((.def_458 (* (to_real (- 1)) x_31)))
(let ((.def_478 (+ .def_458 x_24)))
(let ((.def_479 (+ x_10 .def_478)))
(let ((.def_480 (<= (to_real 0) .def_479)))
(let ((.def_485 (and .def_480 .def_484)))
(let ((.def_486 (and .def_451 .def_485)))
(let ((.def_470 (and .def_468 .def_469)))
(let ((.def_471 (and .def_443 .def_470)))
(let ((.def_472 (and .def_451 .def_471)))
(let ((.def_476 (and .def_472 .def_475)))
(let ((.def_487 (or .def_476 .def_486)))
(let ((.def_68 (and .def_66 x_20)))
(let ((.def_463 (and .def_68 .def_435)))
(let ((.def_464 (and .def_437 .def_463)))
(let ((.def_465 (and x_29 .def_464)))
(let ((.def_466 (and .def_92 .def_465)))
(let ((.def_461 (+ x_31 .def_460)))
(let ((.def_462 (<= (to_real 4) .def_461)))
(let ((.def_467 (and .def_462 .def_466)))
(let ((.def_488 (or .def_467 .def_487)))
(let ((.def_446 (and x_21 .def_303)))
(let ((.def_447 (and .def_435 .def_446)))
(let ((.def_71 (= x_19 (to_real 2))))
(let ((.def_453 (and .def_71 .def_447)))
(let ((.def_454 (and x_28 .def_453)))
(let ((.def_455 (and x_29 .def_454)))
(let ((.def_456 (and .def_443 .def_455)))
(let ((.def_457 (and .def_451 .def_456)))
(let ((.def_489 (or .def_457 .def_488)))
(let ((.def_445 (not .def_71)))
(let ((.def_448 (and .def_445 .def_447)))
(let ((.def_449 (and .def_438 .def_448)))
(let ((.def_450 (and .def_443 .def_449)))
(let ((.def_452 (and .def_450 .def_451)))
(let ((.def_490 (or .def_452 .def_489)))
(let ((.def_434 (and x_21 x_20)))
(let ((.def_436 (and .def_434 .def_435)))
(let ((.def_439 (and .def_436 .def_438)))
(let ((.def_441 (and .def_439 .def_440)))
(let ((.def_444 (and .def_441 .def_443)))
(let ((.def_491 (or .def_444 .def_490)))
(let ((.def_495 (and .def_491 .def_494)))
(let ((.def_497 (and .def_495 .def_496)))
(let ((.def_552 (or .def_497 .def_551)))
(let ((.def_433 (= x_24 x_32)))
(let ((.def_553 (and .def_433 .def_552)))
(let ((.def_565 (or .def_553 .def_564)))
(let ((.def_909 (and .def_565 .def_908)))
(let ((.def_52 (<= x_14 x_15)))
(let ((.def_420 (not .def_52)))
(let ((.def_421 (ite .def_420 x_15 x_14)))
(let ((.def_423 (<= .def_421 x_16)))
(let ((.def_424 (not .def_423)))
(let ((.def_422 (= x_24 .def_421)))
(let ((.def_425 (and .def_422 .def_424)))
(let ((.def_359 (= x_8 x_17)))
(let ((.def_358 (= x_9 x_18)))
(let ((.def_360 (and .def_358 .def_359)))
(let ((.def_426 (and .def_360 .def_425)))
(let ((.def_340 (= x_12 x_20)))
(let ((.def_339 (= x_13 x_21)))
(let ((.def_341 (and .def_339 .def_340)))
(let ((.def_427 (and .def_341 .def_426)))
(let ((.def_362 (= x_14 x_22)))
(let ((.def_428 (and .def_362 .def_427)))
(let ((.def_416 (= x_15 x_23)))
(let ((.def_429 (and .def_416 .def_428)))
(let ((.def_317 (= x_11 x_19)))
(let ((.def_430 (and .def_317 .def_429)))
(let ((.def_365 (= x_14 x_16)))
(let ((.def_230 (not x_8)))
(let ((.def_40 (not x_9)))
(let ((.def_231 (and .def_40 .def_230)))
(let ((.def_395 (and .def_231 .def_365)))
(let ((.def_162 (= x_11 (to_real 0))))
(let ((.def_404 (and .def_162 .def_395)))
(let ((.def_405 (and x_17 .def_404)))
(let ((.def_406 (and .def_61 .def_405)))
(let ((.def_371 (<= x_22 x_16)))
(let ((.def_372 (not .def_371)))
(let ((.def_407 (and .def_372 .def_406)))
(let ((.def_386 (* (to_real (- 1)) x_22)))
(let ((.def_401 (+ .def_386 x_16)))
(let ((.def_402 (+ x_10 .def_401)))
(let ((.def_403 (<= (to_real 0) .def_402)))
(let ((.def_408 (and .def_403 .def_407)))
(let ((.def_409 (and .def_317 .def_408)))
(let ((.def_335 (not .def_162)))
(let ((.def_396 (and .def_335 .def_395)))
(let ((.def_397 (and .def_372 .def_396)))
(let ((.def_398 (and .def_317 .def_397)))
(let ((.def_399 (and .def_360 .def_398)))
(let ((.def_410 (or .def_399 .def_409)))
(let ((.def_42 (and .def_40 x_8)))
(let ((.def_390 (and .def_42 .def_365)))
(let ((.def_391 (and .def_367 .def_390)))
(let ((.def_392 (and x_18 .def_391)))
(let ((.def_393 (and .def_76 .def_392)))
(let ((.def_326 (* (to_real (- 1)) x_16)))
(let ((.def_388 (+ x_22 .def_326)))
(let ((.def_389 (<= (to_real 4) .def_388)))
(let ((.def_394 (and .def_389 .def_393)))
(let ((.def_411 (or .def_394 .def_410)))
(let ((.def_375 (and x_9 .def_230)))
(let ((.def_376 (and .def_365 .def_375)))
(let ((.def_55 (= x_11 (to_real 1))))
(let ((.def_381 (and .def_55 .def_376)))
(let ((.def_382 (and x_17 .def_381)))
(let ((.def_383 (and x_18 .def_382)))
(let ((.def_384 (and .def_372 .def_383)))
(let ((.def_385 (and .def_317 .def_384)))
(let ((.def_412 (or .def_385 .def_411)))
(let ((.def_374 (not .def_55)))
(let ((.def_377 (and .def_374 .def_376)))
(let ((.def_378 (and .def_368 .def_377)))
(let ((.def_379 (and .def_372 .def_378)))
(let ((.def_380 (and .def_317 .def_379)))
(let ((.def_413 (or .def_380 .def_412)))
(let ((.def_364 (and x_9 x_8)))
(let ((.def_366 (and .def_364 .def_365)))
(let ((.def_369 (and .def_366 .def_368)))
(let ((.def_370 (and .def_306 .def_369)))
(let ((.def_373 (and .def_370 .def_372)))
(let ((.def_414 (or .def_373 .def_413)))
(let ((.def_415 (and .def_341 .def_414)))
(let ((.def_417 (and .def_415 .def_416)))
(let ((.def_301 (= x_15 x_16)))
(let ((.def_158 (not x_12)))
(let ((.def_45 (not x_13)))
(let ((.def_159 (and .def_45 .def_158)))
(let ((.def_334 (and .def_159 .def_301)))
(let ((.def_347 (and .def_162 .def_334)))
(let ((.def_348 (and x_20 .def_347)))
(let ((.def_349 (and .def_66 .def_348)))
(let ((.def_308 (<= x_23 x_16)))
(let ((.def_309 (not .def_308)))
(let ((.def_350 (and .def_309 .def_349)))
(let ((.def_324 (* (to_real (- 1)) x_23)))
(let ((.def_344 (+ .def_324 x_16)))
(let ((.def_345 (+ x_10 .def_344)))
(let ((.def_346 (<= (to_real 0) .def_345)))
(let ((.def_351 (and .def_346 .def_350)))
(let ((.def_352 (and .def_317 .def_351)))
(let ((.def_336 (and .def_334 .def_335)))
(let ((.def_337 (and .def_309 .def_336)))
(let ((.def_338 (and .def_317 .def_337)))
(let ((.def_342 (and .def_338 .def_341)))
(let ((.def_353 (or .def_342 .def_352)))
(let ((.def_47 (and .def_45 x_12)))
(let ((.def_329 (and .def_47 .def_301)))
(let ((.def_330 (and .def_303 .def_329)))
(let ((.def_331 (and x_21 .def_330)))
(let ((.def_332 (and .def_71 .def_331)))
(let ((.def_327 (+ x_23 .def_326)))
(let ((.def_328 (<= (to_real 4) .def_327)))
(let ((.def_333 (and .def_328 .def_332)))
(let ((.def_354 (or .def_333 .def_353)))
(let ((.def_312 (and x_13 .def_158)))
(let ((.def_313 (and .def_301 .def_312)))
(let ((.def_50 (= x_11 (to_real 2))))
(let ((.def_319 (and .def_50 .def_313)))
(let ((.def_320 (and x_20 .def_319)))
(let ((.def_321 (and x_21 .def_320)))
(let ((.def_322 (and .def_309 .def_321)))
(let ((.def_323 (and .def_317 .def_322)))
(let ((.def_355 (or .def_323 .def_354)))
(let ((.def_311 (not .def_50)))
(let ((.def_314 (and .def_311 .def_313)))
(let ((.def_315 (and .def_304 .def_314)))
(let ((.def_316 (and .def_309 .def_315)))
(let ((.def_318 (and .def_316 .def_317)))
(let ((.def_356 (or .def_318 .def_355)))
(let ((.def_300 (and x_13 x_12)))
(let ((.def_302 (and .def_300 .def_301)))
(let ((.def_305 (and .def_302 .def_304)))
(let ((.def_307 (and .def_305 .def_306)))
(let ((.def_310 (and .def_307 .def_309)))
(let ((.def_357 (or .def_310 .def_356)))
(let ((.def_361 (and .def_357 .def_360)))
(let ((.def_363 (and .def_361 .def_362)))
(let ((.def_418 (or .def_363 .def_417)))
(let ((.def_299 (= x_16 x_24)))
(let ((.def_419 (and .def_299 .def_418)))
(let ((.def_431 (or .def_419 .def_430)))
(let ((.def_910 (and .def_431 .def_909)))
(let ((.def_30 (<= x_5 x_6)))
(let ((.def_286 (not .def_30)))
(let ((.def_287 (ite .def_286 x_6 x_5)))
(let ((.def_289 (<= .def_287 x_0)))
(let ((.def_290 (not .def_289)))
(let ((.def_288 (= x_16 .def_287)))
(let ((.def_291 (and .def_288 .def_290)))
(let ((.def_222 (= x_1 x_8)))
(let ((.def_221 (= x_2 x_9)))
(let ((.def_223 (and .def_221 .def_222)))
(let ((.def_292 (and .def_223 .def_291)))
(let ((.def_202 (= x_3 x_12)))
(let ((.def_201 (= x_4 x_13)))
(let ((.def_203 (and .def_201 .def_202)))
(let ((.def_293 (and .def_203 .def_292)))
(let ((.def_225 (= x_5 x_14)))
(let ((.def_294 (and .def_225 .def_293)))
(let ((.def_282 (= x_6 x_15)))
(let ((.def_295 (and .def_282 .def_294)))
(let ((.def_174 (= x_7 x_11)))
(let ((.def_296 (and .def_174 .def_295)))
(let ((.def_228 (= x_5 x_0)))
(let ((.def_260 (and .def_228 .def_259)))
(let ((.def_270 (and .def_196 .def_260)))
(let ((.def_271 (and x_8 .def_270)))
(let ((.def_272 (and .def_40 .def_271)))
(let ((.def_234 (<= x_14 x_0)))
(let ((.def_235 (not .def_234)))
(let ((.def_273 (and .def_235 .def_272)))
(let ((.def_250 (* (to_real (- 1)) x_14)))
(let ((.def_267 (+ .def_250 x_0)))
(let ((.def_268 (+ x_10 .def_267)))
(let ((.def_269 (<= (to_real 0) .def_268)))
(let ((.def_274 (and .def_269 .def_273)))
(let ((.def_275 (and .def_174 .def_274)))
(let ((.def_197 (not .def_196)))
(let ((.def_261 (and .def_197 .def_260)))
(let ((.def_262 (and .def_235 .def_261)))
(let ((.def_263 (and .def_174 .def_262)))
(let ((.def_264 (and .def_223 .def_263)))
(let ((.def_276 (or .def_264 .def_275)))
(let ((.def_19 (and .def_17 x_1)))
(let ((.def_254 (and .def_19 .def_228)))
(let ((.def_255 (and .def_230 .def_254)))
(let ((.def_256 (and x_9 .def_255)))
(let ((.def_257 (and .def_55 .def_256)))
(let ((.def_186 (* (to_real (- 1)) x_0)))
(let ((.def_252 (+ x_14 .def_186)))
(let ((.def_253 (<= (to_real 4) .def_252)))
(let ((.def_258 (and .def_253 .def_257)))
(let ((.def_277 (or .def_258 .def_276)))
(let ((.def_239 (and x_2 .def_238)))
(let ((.def_240 (and .def_228 .def_239)))
(let ((.def_34 (= x_7 (to_real 1))))
(let ((.def_245 (and .def_34 .def_240)))
(let ((.def_246 (and x_8 .def_245)))
(let ((.def_247 (and x_9 .def_246)))
(let ((.def_248 (and .def_235 .def_247)))
(let ((.def_249 (and .def_174 .def_248)))
(let ((.def_278 (or .def_249 .def_277)))
(let ((.def_237 (not .def_34)))
(let ((.def_241 (and .def_237 .def_240)))
(let ((.def_242 (and .def_231 .def_241)))
(let ((.def_243 (and .def_235 .def_242)))
(let ((.def_244 (and .def_174 .def_243)))
(let ((.def_279 (or .def_244 .def_278)))
(let ((.def_227 (and x_2 x_1)))
(let ((.def_229 (and .def_227 .def_228)))
(let ((.def_232 (and .def_229 .def_231)))
(let ((.def_233 (and .def_162 .def_232)))
(let ((.def_236 (and .def_233 .def_235)))
(let ((.def_280 (or .def_236 .def_279)))
(let ((.def_281 (and .def_203 .def_280)))
(let ((.def_283 (and .def_281 .def_282)))
(let ((.def_156 (= x_6 x_0)))
(let ((.def_195 (and .def_156 .def_194)))
(let ((.def_210 (and .def_195 .def_196)))
(let ((.def_211 (and x_12 .def_210)))
(let ((.def_212 (and .def_45 .def_211)))
(let ((.def_164 (<= x_15 x_0)))
(let ((.def_165 (not .def_164)))
(let ((.def_213 (and .def_165 .def_212)))
(let ((.def_182 (* (to_real (- 1)) x_15)))
(let ((.def_207 (+ .def_182 x_0)))
(let ((.def_208 (+ x_10 .def_207)))
(let ((.def_209 (<= (to_real 0) .def_208)))
(let ((.def_214 (and .def_209 .def_213)))
(let ((.def_215 (and .def_174 .def_214)))
(let ((.def_198 (and .def_195 .def_197)))
(let ((.def_199 (and .def_165 .def_198)))
(let ((.def_200 (and .def_174 .def_199)))
(let ((.def_204 (and .def_200 .def_203)))
(let ((.def_216 (or .def_204 .def_215)))
(let ((.def_24 (and .def_22 x_3)))
(let ((.def_189 (and .def_24 .def_156)))
(let ((.def_190 (and .def_158 .def_189)))
(let ((.def_191 (and x_13 .def_190)))
(let ((.def_192 (and .def_50 .def_191)))
(let ((.def_187 (+ x_15 .def_186)))
(let ((.def_188 (<= (to_real 4) .def_187)))
(let ((.def_193 (and .def_188 .def_192)))
(let ((.def_217 (or .def_193 .def_216)))
(let ((.def_169 (and x_4 .def_168)))
(let ((.def_170 (and .def_156 .def_169)))
(let ((.def_28 (= x_7 (to_real 2))))
(let ((.def_176 (and .def_28 .def_170)))
(let ((.def_177 (and x_12 .def_176)))
(let ((.def_178 (and x_13 .def_177)))
(let ((.def_179 (and .def_165 .def_178)))
(let ((.def_180 (and .def_174 .def_179)))
(let ((.def_218 (or .def_180 .def_217)))
(let ((.def_167 (not .def_28)))
(let ((.def_171 (and .def_167 .def_170)))
(let ((.def_172 (and .def_159 .def_171)))
(let ((.def_173 (and .def_165 .def_172)))
(let ((.def_175 (and .def_173 .def_174)))
(let ((.def_219 (or .def_175 .def_218)))
(let ((.def_155 (and x_4 x_3)))
(let ((.def_157 (and .def_155 .def_156)))
(let ((.def_160 (and .def_157 .def_159)))
(let ((.def_163 (and .def_160 .def_162)))
(let ((.def_166 (and .def_163 .def_165)))
(let ((.def_220 (or .def_166 .def_219)))
(let ((.def_224 (and .def_220 .def_223)))
(let ((.def_226 (and .def_224 .def_225)))
(let ((.def_284 (or .def_226 .def_283)))
(let ((.def_154 (= x_0 x_16)))
(let ((.def_285 (and .def_154 .def_284)))
(let ((.def_297 (or .def_285 .def_296)))
(let ((.def_911 (and .def_297 .def_910)))
(let ((.def_136 (<= x_46 x_47)))
(let ((.def_131 (and .def_129 x_44)))
(let ((.def_137 (and .def_131 .def_136)))
(let ((.def_126 (and .def_124 x_41)))
(let ((.def_138 (or .def_126 .def_137)))
(let ((.def_140 (and .def_138 .def_139)))
(let ((.def_122 (<= x_47 x_46)))
(let ((.def_127 (and .def_122 .def_126)))
(let ((.def_132 (or .def_127 .def_131)))
(let ((.def_135 (and .def_132 .def_134)))
(let ((.def_141 (or .def_135 .def_140)))
(let ((.def_116 (and .def_110 .def_115)))
(let ((.def_117 (or .def_105 .def_116)))
(let ((.def_119 (and .def_117 .def_118)))
(let ((.def_142 (or .def_119 .def_141)))
(let ((.def_101 (<= x_39 x_38)))
(let ((.def_106 (and .def_101 .def_105)))
(let ((.def_111 (or .def_106 .def_110)))
(let ((.def_114 (and .def_111 .def_113)))
(let ((.def_143 (or .def_114 .def_142)))
(let ((.def_95 (and .def_89 .def_94)))
(let ((.def_96 (or .def_84 .def_95)))
(let ((.def_98 (and .def_96 .def_97)))
(let ((.def_144 (or .def_98 .def_143)))
(let ((.def_80 (<= x_31 x_30)))
(let ((.def_85 (and .def_80 .def_84)))
(let ((.def_90 (or .def_85 .def_89)))
(let ((.def_93 (and .def_90 .def_92)))
(let ((.def_145 (or .def_93 .def_144)))
(let ((.def_74 (and .def_68 .def_73)))
(let ((.def_75 (or .def_63 .def_74)))
(let ((.def_77 (and .def_75 .def_76)))
(let ((.def_146 (or .def_77 .def_145)))
(let ((.def_59 (<= x_23 x_22)))
(let ((.def_64 (and .def_59 .def_63)))
(let ((.def_69 (or .def_64 .def_68)))
(let ((.def_72 (and .def_69 .def_71)))
(let ((.def_147 (or .def_72 .def_146)))
(let ((.def_53 (and .def_47 .def_52)))
(let ((.def_54 (or .def_42 .def_53)))
(let ((.def_56 (and .def_54 .def_55)))
(let ((.def_148 (or .def_56 .def_147)))
(let ((.def_38 (<= x_15 x_14)))
(let ((.def_43 (and .def_38 .def_42)))
(let ((.def_48 (or .def_43 .def_47)))
(let ((.def_51 (and .def_48 .def_50)))
(let ((.def_149 (or .def_51 .def_148)))
(let ((.def_31 (and .def_24 .def_30)))
(let ((.def_32 (or .def_19 .def_31)))
(let ((.def_35 (and .def_32 .def_34)))
(let ((.def_150 (or .def_35 .def_149)))
(let ((.def_15 (<= x_6 x_5)))
(let ((.def_20 (and .def_15 .def_19)))
(let ((.def_25 (or .def_20 .def_24)))
(let ((.def_29 (and .def_25 .def_28)))
(let ((.def_151 (or .def_29 .def_150)))
(let ((.def_912 (and .def_151 .def_911)))
(let ((.def_12 (= x_10 cost)))
(let ((.def_913 (and .def_12 .def_912)))
.def_913)))))))))))))))))))))))))))))))))))))))))))))))))))))))))))))))))))))))))))))))))))))))))))))))))))))))))))))))))))))))))))))))))))))))))))))))))))))))))))))))))))))))))))))))))))))))))))))))))))))))))))))))))))))))))))))))))))))))))))))))))))))))))))))))))))))))))))))))))))))))))))))))))))))))))))))))))))))))))))))))))))))))))))))))))))))))))))))))))))))))))))))))))))))))))))))))))))))))))))))))))))))))))))))))))))))))))))))))))))))))))))))))))))))))))))))))))))))))))))))))))))))))))))))))))))))))))))))))))))))))))))))))))))))))))))))))))))))))))))))))))))))))))))))))))))))))))))))))))))))))))))))))))))))))))))))))))))))))))))))))))))))))))))))))))))))))))))))))))))))))))))))))))))))))))))))))))))))))))))))))))))))))))))))))))))))))))))))))))))))))))))))))))))))))))))))))))))))))))))))))))))))))))))))))))))))))))))
(minimize cost)
(check-sat)
(get-objectives)
(exit)
